minimize
obj: 7 x_2,1_ + 11 x_3,1_ + 9 x_4,1_ + 5 x_5,1_ + 8 x_6,1_ + 9 x_7,1_ + 11 x_8,1_ + 8 x_9,1_ + 6 x_10,1_ + 7 x_11,1_ + 7 x_1,2_ + 7 x_3,2_ + 10 x_4,2_ + 6 x_5,2_ + 3 x_6,2_ + 4 x_7,2_ + 6 x_8,2_ + 1 x_9,2_ + 9 x_10,2_ + 1 x_11,2_ + 7 x_12,2_ + 11 x_1,3_ + 7 x_2,3_ + 6 x_4,3_ + 7 x_5,3_ + 4 x_6,3_ + 3 x_7,3_ + 1 x_8,3_ + 6 x_9,3_ + 9 x_10,3_ + 6 x_11,3_ + 11 x_12,3_ + 9 x_1,4_ + 10 x_2,4_ + 6 x_3,4_ + 5 x_5,4_ + 7 x_6,4_ + 7 x_7,4_ + 7 x_8,4_ + 9 x_9,4_ + 4 x_10,4_ + 9 x_11,4_ + 9 x_12,4_ + 5 x_1,5_ + 6 x_2,5_ + 7 x_3,5_ + 5 x_4,5_ + 4 x_6,5_ + 5 x_7,5_ + 6 x_8,5_ + 6 x_9,5_ + 4 x_10,5_ + 5 x_11,5_ + 5 x_12,5_ + 8 x_1,6_ + 3 x_2,6_ + 4 x_3,6_ + 7 x_4,6_ + 4 x_5,6_ + 1 x_7,6_ + 4 x_8,6_ + 2 x_9,6_ + 8 x_10,6_ + 2 x_11,6_ + 8 x_12,6_ + 9 x_1,7_ + 4 x_2,7_ + 3 x_3,7_ + 7 x_4,7_ + 5 x_5,7_ + 1 x_6,7_ + 2 x_8,7_ + 3 x_9,7_ + 8 x_10,7_ + 3 x_11,7_ + 9 x_12,7_ + 11 x_1,8_ + 6 x_2,8_ + 1 x_3,8_ + 7 x_4,8_ + 6 x_5,8_ + 4 x_6,8_ + 2 x_7,8_ + 5 x_9,8_ + 9 x_10,8_ + 5 x_11,8_ + 11 x_12,8_ + 8 x_1,9_ + 1 x_2,9_ + 6 x_3,9_ + 9 x_4,9_ + 6 x_5,9_ + 2 x_6,9_ + 3 x_7,9_ + 5 x_8,9_ + 9 x_10,9_ + 1 x_11,9_ + 8 x_12,9_ + 6 x_1,10_ + 9 x_2,10_ + 9 x_3,10_ + 4 x_4,10_ + 4 x_5,10_ + 8 x_6,10_ + 8 x_7,10_ + 9 x_8,10_ + 9 x_9,10_ + 9 x_11,10_ + 6 x_12,10_ + 7 x_1,11_ + 1 x_2,11_ + 6 x_3,11_ + 9 x_4,11_ + 5 x_5,11_ + 2 x_6,11_ + 3 x_7,11_ + 5 x_8,11_ + 1 x_9,11_ + 9 x_10,11_ + 7 x_12,11_ + 7 x_2,12_ + 11 x_3,12_ + 9 x_4,12_ + 5 x_5,12_ + 8 x_6,12_ + 9 x_7,12_ + 11 x_8,12_ + 8 x_9,12_ + 6 x_10,12_ + 7 x_11,12_
subject to
c1_3: -1 T_1_ <= 0
c2_3: -1 T_2_ <= -28
c3_3: -1 T_3_ <= -20
c4_3: -1 T_4_ <= -3
c5_3: -1 T_5_ <= -15
c6_3: -1 T_6_ <= -25
c7_3: -1 T_7_ <= -50
c8_3: -1 T_8_ <= -49
c9_3: -1 T_9_ <= -59
c10_3: -1 T_10_ <= -30
c11_3: -1 T_11_ <= -33
c12_3: -1 T_12_ <= 0
c13_3: 1 Q_1_ <= 3
c14_3: -1 Q_1_ <= 0
c15_3: 1 Q_2_ <= 3
c16_3: -1 Q_2_ <= -1
c17_3: 1 Q_3_ <= 3
c18_2: -1 Q_3_ <= -1
c19_2: 1 Q_4_ <= 3
c20_2: -1 Q_4_ <= -1
c21_2: 1 Q_5_ <= 3
c22_2: -1 Q_5_ <= -1
c23_1: 1 Q_6_ <= 3
c24_1: -1 Q_6_ <= -1
c25_1: 1 Q_7_ <= 2
c26_1: -1 Q_7_ <= 0
c27_1: 1 Q_8_ <= 2
c28_1: -1 Q_8_ <= 0
c29_1: 1 Q_9_ <= 2
c30_1: -1 Q_9_ <= 0
c31_1: 1 Q_10_ <= 2
c32_1: -1 Q_10_ <= 0
c33_1: 1 Q_11_ <= 2
c34_1: -1 Q_11_ <= 0
c35_1: 1 Q_12_ <= 3
c36_1: -1 Q_12_ <= 0
c1_2: -1 T_1_ >= 0
c2_2: -1 T_2_ >= -57
c3_2: -1 T_3_ >= -52
c4_2: -1 T_4_ >= -51
c5_2: -1 T_5_ >= -40
c6_2: -1 T_6_ >= -55
c7_2: -1 T_7_ >= -66
c8_2: -1 T_8_ >= -78
c9_2: -1 T_9_ >= -88
c10_2: -1 T_10_ >= -87
c11_2: -1 T_11_ >= -90
c12_2: -1 T_12_ >= -100
c13_2: -1 T_2_ + 1 T_7_ >= 5
c14_2: -1 T_3_ + 1 T_8_ >= 4
c15_2: -1 T_4_ + 1 T_9_ >= 12
c16_2: -1 T_5_ + 1 T_10_ >= 6
c17_2: -1 T_6_ + 1 T_11_ >= 3
c1: 1 T_1_ + [ -1 T_1_ * x_1,1_ ] >= 0
c2: 1 T_2_ - 7 x_1,2_ + [ -1 T_1_ * x_1,2_ ] >= 0
c3: 1 T_3_ - 11 x_1,3_ + [ -1 T_1_ * x_1,3_ ] >= 0
c4: 1 T_4_ - 9 x_1,4_ + [ -1 T_1_ * x_1,4_ ] >= 0
c5: 1 T_5_ - 5 x_1,5_ + [ -1 T_1_ * x_1,5_ ] >= 0
c6: 1 T_6_ - 8 x_1,6_ + [ -1 T_1_ * x_1,6_ ] >= 0
c7: 1 T_7_ - 9 x_1,7_ + [ -1 T_1_ * x_1,7_ ] >= 0
c8: 1 T_8_ - 11 x_1,8_ + [ -1 T_1_ * x_1,8_ ] >= 0
c9: 1 T_9_ - 8 x_1,9_ + [ -1 T_1_ * x_1,9_ ] >= 0
c10: 1 T_10_ - 6 x_1,10_ + [ -1 T_1_ * x_1,10_ ] >= 0
c11: 1 T_11_ - 7 x_1,11_ + [ -1 T_1_ * x_1,11_ ] >= 0
c12: 1 T_12_ + [ -1 T_1_ * x_1,12_ ] >= 0
c13: 1 T_1_ - 8 x_2,1_ + [ -1 T_2_ * x_2,1_ ] >= 0
c14: 1 T_2_ - 1 x_2,2_ + [ -1 T_2_ * x_2,2_ ] >= 0
c15: 1 T_3_ - 8 x_2,3_ + [ -1 T_2_ * x_2,3_ ] >= 0
c16: 1 T_4_ - 11 x_2,4_ + [ -1 T_2_ * x_2,4_ ] >= 0
c17: 1 T_5_ - 7 x_2,5_ + [ -1 T_2_ * x_2,5_ ] >= 0
c18: 1 T_6_ - 4 x_2,6_ + [ -1 T_2_ * x_2,6_ ] >= 0
c19: 1 T_7_ - 5 x_2,7_ + [ -1 T_2_ * x_2,7_ ] >= 0
c20: 1 T_8_ - 7 x_2,8_ + [ -1 T_2_ * x_2,8_ ] >= 0
c21: 1 T_9_ - 2 x_2,9_ + [ -1 T_2_ * x_2,9_ ] >= 0
c22: 1 T_10_ - 10 x_2,10_ + [ -1 T_2_ * x_2,10_ ] >= 0
c23: 1 T_11_ - 2 x_2,11_ + [ -1 T_2_ * x_2,11_ ] >= 0
c24: 1 T_12_ - 8 x_2,12_ + [ -1 T_2_ * x_2,12_ ] >= 0
c25: 1 T_1_ - 14 x_3,1_ + [ -1 T_3_ * x_3,1_ ] >= 0
c26: 1 T_2_ - 10 x_3,2_ + [ -1 T_3_ * x_3,2_ ] >= 0
c27: 1 T_3_ - 3 x_3,3_ + [ -1 T_3_ * x_3,3_ ] >= 0
c28: 1 T_4_ - 9 x_3,4_ + [ -1 T_3_ * x_3,4_ ] >= 0
c29: 1 T_5_ - 10 x_3,5_ + [ -1 T_3_ * x_3,5_ ] >= 0
c30: 1 T_6_ - 7 x_3,6_ + [ -1 T_3_ * x_3,6_ ] >= 0
c31: 1 T_7_ - 6 x_3,7_ + [ -1 T_3_ * x_3,7_ ] >= 0
c32: 1 T_8_ - 4 x_3,8_ + [ -1 T_3_ * x_3,8_ ] >= 0
c33: 1 T_9_ - 9 x_3,9_ + [ -1 T_3_ * x_3,9_ ] >= 0
c34: 1 T_10_ - 12 x_3,10_ + [ -1 T_3_ * x_3,10_ ] >= 0
c35: 1 T_11_ - 9 x_3,11_ + [ -1 T_3_ * x_3,11_ ] >= 0
c36: 1 T_12_ - 14 x_3,12_ + [ -1 T_3_ * x_3,12_ ] >= 0
c37: 1 T_1_ - 12 x_4,1_ + [ -1 T_4_ * x_4,1_ ] >= 0
c38: 1 T_2_ - 13 x_4,2_ + [ -1 T_4_ * x_4,2_ ] >= 0
c39: 1 T_3_ - 9 x_4,3_ + [ -1 T_4_ * x_4,3_ ] >= 0
c40: 1 T_4_ - 3 x_4,4_ + [ -1 T_4_ * x_4,4_ ] >= 0
c41: 1 T_5_ - 8 x_4,5_ + [ -1 T_4_ * x_4,5_ ] >= 0
c42: 1 T_6_ - 10 x_4,6_ + [ -1 T_4_ * x_4,6_ ] >= 0
c43: 1 T_7_ - 10 x_4,7_ + [ -1 T_4_ * x_4,7_ ] >= 0
c44: 1 T_8_ - 10 x_4,8_ + [ -1 T_4_ * x_4,8_ ] >= 0
c45: 1 T_9_ - 12 x_4,9_ + [ -1 T_4_ * x_4,9_ ] >= 0
c46: 1 T_10_ - 7 x_4,10_ + [ -1 T_4_ * x_4,10_ ] >= 0
c47: 1 T_11_ - 12 x_4,11_ + [ -1 T_4_ * x_4,11_ ] >= 0
c48: 1 T_12_ - 12 x_4,12_ + [ -1 T_4_ * x_4,12_ ] >= 0
c49: 1 T_1_ - 7 x_5,1_ + [ -1 T_5_ * x_5,1_ ] >= 0
c50: 1 T_2_ - 8 x_5,2_ + [ -1 T_5_ * x_5,2_ ] >= 0
c51: 1 T_3_ - 9 x_5,3_ + [ -1 T_5_ * x_5,3_ ] >= 0
c52: 1 T_4_ - 7 x_5,4_ + [ -1 T_5_ * x_5,4_ ] >= 0
c53: 1 T_5_ - 2 x_5,5_ + [ -1 T_5_ * x_5,5_ ] >= 0
c54: 1 T_6_ - 6 x_5,6_ + [ -1 T_5_ * x_5,6_ ] >= 0
c55: 1 T_7_ - 7 x_5,7_ + [ -1 T_5_ * x_5,7_ ] >= 0
c56: 1 T_8_ - 8 x_5,8_ + [ -1 T_5_ * x_5,8_ ] >= 0
c57: 1 T_9_ - 8 x_5,9_ + [ -1 T_5_ * x_5,9_ ] >= 0
c58: 1 T_10_ - 6 x_5,10_ + [ -1 T_5_ * x_5,10_ ] >= 0
c59: 1 T_11_ - 7 x_5,11_ + [ -1 T_5_ * x_5,11_ ] >= 0
c60: 1 T_12_ - 7 x_5,12_ + [ -1 T_5_ * x_5,12_ ] >= 0
c61: 1 T_1_ - 9 x_6,1_ + [ -1 T_6_ * x_6,1_ ] >= 0
c62: 1 T_2_ - 4 x_6,2_ + [ -1 T_6_ * x_6,2_ ] >= 0
c63: 1 T_3_ - 5 x_6,3_ + [ -1 T_6_ * x_6,3_ ] >= 0
c64: 1 T_4_ - 8 x_6,4_ + [ -1 T_6_ * x_6,4_ ] >= 0
c65: 1 T_5_ - 5 x_6,5_ + [ -1 T_6_ * x_6,5_ ] >= 0
c66: 1 T_6_ - 1 x_6,6_ + [ -1 T_6_ * x_6,6_ ] >= 0
c67: 1 T_7_ - 2 x_6,7_ + [ -1 T_6_ * x_6,7_ ] >= 0
c68: 1 T_8_ - 5 x_6,8_ + [ -1 T_6_ * x_6,8_ ] >= 0
c69: 1 T_9_ - 3 x_6,9_ + [ -1 T_6_ * x_6,9_ ] >= 0
c70: 1 T_10_ - 9 x_6,10_ + [ -1 T_6_ * x_6,10_ ] >= 0
c71: 1 T_11_ - 3 x_6,11_ + [ -1 T_6_ * x_6,11_ ] >= 0
c72: 1 T_12_ - 9 x_6,12_ + [ -1 T_6_ * x_6,12_ ] >= 0
c73: 1 T_1_ - 11 x_7,1_ + [ -1 T_7_ * x_7,1_ ] >= 0
c74: 1 T_2_ - 6 x_7,2_ + [ -1 T_7_ * x_7,2_ ] >= 0
c75: 1 T_3_ - 5 x_7,3_ + [ -1 T_7_ * x_7,3_ ] >= 0
c76: 1 T_4_ - 9 x_7,4_ + [ -1 T_7_ * x_7,4_ ] >= 0
c77: 1 T_5_ - 7 x_7,5_ + [ -1 T_7_ * x_7,5_ ] >= 0
c78: 1 T_6_ - 3 x_7,6_ + [ -1 T_7_ * x_7,6_ ] >= 0
c79: 1 T_7_ - 2 x_7,7_ + [ -1 T_7_ * x_7,7_ ] >= 0
c80: 1 T_8_ - 4 x_7,8_ + [ -1 T_7_ * x_7,8_ ] >= 0
c81: 1 T_9_ - 5 x_7,9_ + [ -1 T_7_ * x_7,9_ ] >= 0
c82: 1 T_10_ - 10 x_7,10_ + [ -1 T_7_ * x_7,10_ ] >= 0
c83: 1 T_11_ - 5 x_7,11_ + [ -1 T_7_ * x_7,11_ ] >= 0
c84: 1 T_12_ - 11 x_7,12_ + [ -1 T_7_ * x_7,12_ ] >= 0
c85: 1 T_1_ - 14 x_8,1_ + [ -1 T_8_ * x_8,1_ ] >= 0
c86: 1 T_2_ - 9 x_8,2_ + [ -1 T_8_ * x_8,2_ ] >= 0
c87: 1 T_3_ - 4 x_8,3_ + [ -1 T_8_ * x_8,3_ ] >= 0
c88: 1 T_4_ - 10 x_8,4_ + [ -1 T_8_ * x_8,4_ ] >= 0
c89: 1 T_5_ - 9 x_8,5_ + [ -1 T_8_ * x_8,5_ ] >= 0
c90: 1 T_6_ - 7 x_8,6_ + [ -1 T_8_ * x_8,6_ ] >= 0
c91: 1 T_7_ - 5 x_8,7_ + [ -1 T_8_ * x_8,7_ ] >= 0
c92: 1 T_8_ - 3 x_8,8_ + [ -1 T_8_ * x_8,8_ ] >= 0
c93: 1 T_9_ - 8 x_8,9_ + [ -1 T_8_ * x_8,9_ ] >= 0
c94: 1 T_10_ - 12 x_8,10_ + [ -1 T_8_ * x_8,10_ ] >= 0
c95: 1 T_11_ - 8 x_8,11_ + [ -1 T_8_ * x_8,11_ ] >= 0
c96: 1 T_12_ - 14 x_8,12_ + [ -1 T_8_ * x_8,12_ ] >= 0
c97: 1 T_1_ - 11 x_9,1_ + [ -1 T_9_ * x_9,1_ ] >= 0
c98: 1 T_2_ - 4 x_9,2_ + [ -1 T_9_ * x_9,2_ ] >= 0
c99: 1 T_3_ - 9 x_9,3_ + [ -1 T_9_ * x_9,3_ ] >= 0
c100: 1 T_4_ - 12 x_9,4_ + [ -1 T_9_ * x_9,4_ ] >= 0
c101: 1 T_5_ - 9 x_9,5_ + [ -1 T_9_ * x_9,5_ ] >= 0
c102: 1 T_6_ - 5 x_9,6_ + [ -1 T_9_ * x_9,6_ ] >= 0
c103: 1 T_7_ - 6 x_9,7_ + [ -1 T_9_ * x_9,7_ ] >= 0
c104: 1 T_8_ - 8 x_9,8_ + [ -1 T_9_ * x_9,8_ ] >= 0
c105: 1 T_9_ - 3 x_9,9_ + [ -1 T_9_ * x_9,9_ ] >= 0
c106: 1 T_10_ - 12 x_9,10_ + [ -1 T_9_ * x_9,10_ ] >= 0
c107: 1 T_11_ - 4 x_9,11_ + [ -1 T_9_ * x_9,11_ ] >= 0
c108: 1 T_12_ - 11 x_9,12_ + [ -1 T_9_ * x_9,12_ ] >= 0
c109: 1 T_1_ - 7 x_10,1_ + [ -1 T_10_ * x_10,1_ ] >= 0
c110: 1 T_2_ - 10 x_10,2_ + [ -1 T_10_ * x_10,2_ ] >= 0
c111: 1 T_3_ - 10 x_10,3_ + [ -1 T_10_ * x_10,3_ ] >= 0
c112: 1 T_4_ - 5 x_10,4_ + [ -1 T_10_ * x_10,4_ ] >= 0
c113: 1 T_5_ - 5 x_10,5_ + [ -1 T_10_ * x_10,5_ ] >= 0
c114: 1 T_6_ - 9 x_10,6_ + [ -1 T_10_ * x_10,6_ ] >= 0
c115: 1 T_7_ - 9 x_10,7_ + [ -1 T_10_ * x_10,7_ ] >= 0
c116: 1 T_8_ - 10 x_10,8_ + [ -1 T_10_ * x_10,8_ ] >= 0
c117: 1 T_9_ - 10 x_10,9_ + [ -1 T_10_ * x_10,9_ ] >= 0
c118: 1 T_10_ - 1 x_10,10_ + [ -1 T_10_ * x_10,10_ ] >= 0
c119: 1 T_11_ - 10 x_10,11_ + [ -1 T_10_ * x_10,11_ ] >= 0
c120: 1 T_12_ - 7 x_10,12_ + [ -1 T_10_ * x_10,12_ ] >= 0
c121: 1 T_1_ - 10 x_11,1_ + [ -1 T_11_ * x_11,1_ ] >= 0
c122: 1 T_2_ - 4 x_11,2_ + [ -1 T_11_ * x_11,2_ ] >= 0
c123: 1 T_3_ - 9 x_11,3_ + [ -1 T_11_ * x_11,3_ ] >= 0
c124: 1 T_4_ - 12 x_11,4_ + [ -1 T_11_ * x_11,4_ ] >= 0
c125: 1 T_5_ - 8 x_11,5_ + [ -1 T_11_ * x_11,5_ ] >= 0
c126: 1 T_6_ - 5 x_11,6_ + [ -1 T_11_ * x_11,6_ ] >= 0
c127: 1 T_7_ - 6 x_11,7_ + [ -1 T_11_ * x_11,7_ ] >= 0
c128: 1 T_8_ - 8 x_11,8_ + [ -1 T_11_ * x_11,8_ ] >= 0
c129: 1 T_9_ - 4 x_11,9_ + [ -1 T_11_ * x_11,9_ ] >= 0
c130: 1 T_10_ - 12 x_11,10_ + [ -1 T_11_ * x_11,10_ ] >= 0
c131: 1 T_11_ - 3 x_11,11_ + [ -1 T_11_ * x_11,11_ ] >= 0
c132: 1 T_12_ - 10 x_11,12_ + [ -1 T_11_ * x_11,12_ ] >= 0
c133: 1 T_1_ + [ -1 T_12_ * x_12,1_ ] >= 0
c134: 1 T_2_ - 7 x_12,2_ + [ -1 T_12_ * x_12,2_ ] >= 0
c135: 1 T_3_ - 11 x_12,3_ + [ -1 T_12_ * x_12,3_ ] >= 0
c136: 1 T_4_ - 9 x_12,4_ + [ -1 T_12_ * x_12,4_ ] >= 0
c137: 1 T_5_ - 5 x_12,5_ + [ -1 T_12_ * x_12,5_ ] >= 0
c138: 1 T_6_ - 8 x_12,6_ + [ -1 T_12_ * x_12,6_ ] >= 0
c139: 1 T_7_ - 9 x_12,7_ + [ -1 T_12_ * x_12,7_ ] >= 0
c140: 1 T_8_ - 11 x_12,8_ + [ -1 T_12_ * x_12,8_ ] >= 0
c141: 1 T_9_ - 8 x_12,9_ + [ -1 T_12_ * x_12,9_ ] >= 0
c142: 1 T_10_ - 6 x_12,10_ + [ -1 T_12_ * x_12,10_ ] >= 0
c143: 1 T_11_ - 7 x_12,11_ + [ -1 T_12_ * x_12,11_ ] >= 0
c144: 1 T_12_ + [ -1 T_12_ * x_12,12_ ] >= 0
c145: 1 Q_1_ + [ -1 Q_1_ * x_1,1_ ] >= 0
c146: 1 Q_2_ - 1 x_1,2_ + [ -1 Q_1_ * x_1,2_ ] >= 0
c147: 1 Q_3_ - 1 x_1,3_ + [ -1 Q_1_ * x_1,3_ ] >= 0
c148: 1 Q_4_ - 1 x_1,4_ + [ -1 Q_1_ * x_1,4_ ] >= 0
c149: 1 Q_5_ - 1 x_1,5_ + [ -1 Q_1_ * x_1,5_ ] >= 0
c150: 1 Q_6_ - 1 x_1,6_ + [ -1 Q_1_ * x_1,6_ ] >= 0
c151: 1 Q_7_ + 1 x_1,7_ + [ -1 Q_1_ * x_1,7_ ] >= 0
c152: 1 Q_8_ + 1 x_1,8_ + [ -1 Q_1_ * x_1,8_ ] >= 0
c153: 1 Q_9_ + 1 x_1,9_ + [ -1 Q_1_ * x_1,9_ ] >= 0
c154: 1 Q_10_ + 1 x_1,10_ + [ -1 Q_1_ * x_1,10_ ] >= 0
c155: 1 Q_11_ + 1 x_1,11_ + [ -1 Q_1_ * x_1,11_ ] >= 0
c156: 1 Q_12_ + [ -1 Q_1_ * x_1,12_ ] >= 0
c157: 1 Q_1_ + [ -1 Q_2_ * x_2,1_ ] >= 0
c158: 1 Q_2_ - 1 x_2,2_ + [ -1 Q_2_ * x_2,2_ ] >= 0
c159: 1 Q_3_ - 1 x_2,3_ + [ -1 Q_2_ * x_2,3_ ] >= 0
c160: 1 Q_4_ - 1 x_2,4_ + [ -1 Q_2_ * x_2,4_ ] >= 0
c161: 1 Q_5_ - 1 x_2,5_ + [ -1 Q_2_ * x_2,5_ ] >= 0
c162: 1 Q_6_ - 1 x_2,6_ + [ -1 Q_2_ * x_2,6_ ] >= 0
c163: 1 Q_7_ + 1 x_2,7_ + [ -1 Q_2_ * x_2,7_ ] >= 0
c164: 1 Q_8_ + 1 x_2,8_ + [ -1 Q_2_ * x_2,8_ ] >= 0
c165: 1 Q_9_ + 1 x_2,9_ + [ -1 Q_2_ * x_2,9_ ] >= 0
c166: 1 Q_10_ + 1 x_2,10_ + [ -1 Q_2_ * x_2,10_ ] >= 0
c167: 1 Q_11_ + 1 x_2,11_ + [ -1 Q_2_ * x_2,11_ ] >= 0
c168: 1 Q_12_ + [ -1 Q_2_ * x_2,12_ ] >= 0
c169: 1 Q_1_ + [ -1 Q_3_ * x_3,1_ ] >= 0
c170: 1 Q_2_ - 1 x_3,2_ + [ -1 Q_3_ * x_3,2_ ] >= 0
c171: 1 Q_3_ - 1 x_3,3_ + [ -1 Q_3_ * x_3,3_ ] >= 0
c172: 1 Q_4_ - 1 x_3,4_ + [ -1 Q_3_ * x_3,4_ ] >= 0
c173: 1 Q_5_ - 1 x_3,5_ + [ -1 Q_3_ * x_3,5_ ] >= 0
c174: 1 Q_6_ - 1 x_3,6_ + [ -1 Q_3_ * x_3,6_ ] >= 0
c175: 1 Q_7_ + 1 x_3,7_ + [ -1 Q_3_ * x_3,7_ ] >= 0
c176: 1 Q_8_ + 1 x_3,8_ + [ -1 Q_3_ * x_3,8_ ] >= 0
c177: 1 Q_9_ + 1 x_3,9_ + [ -1 Q_3_ * x_3,9_ ] >= 0
c178: 1 Q_10_ + 1 x_3,10_ + [ -1 Q_3_ * x_3,10_ ] >= 0
c179: 1 Q_11_ + 1 x_3,11_ + [ -1 Q_3_ * x_3,11_ ] >= 0
c180: 1 Q_12_ + [ -1 Q_3_ * x_3,12_ ] >= 0
c181: 1 Q_1_ + [ -1 Q_4_ * x_4,1_ ] >= 0
c182: 1 Q_2_ - 1 x_4,2_ + [ -1 Q_4_ * x_4,2_ ] >= 0
c183: 1 Q_3_ - 1 x_4,3_ + [ -1 Q_4_ * x_4,3_ ] >= 0
c184: 1 Q_4_ - 1 x_4,4_ + [ -1 Q_4_ * x_4,4_ ] >= 0
c185: 1 Q_5_ - 1 x_4,5_ + [ -1 Q_4_ * x_4,5_ ] >= 0
c186: 1 Q_6_ - 1 x_4,6_ + [ -1 Q_4_ * x_4,6_ ] >= 0
c187: 1 Q_7_ + 1 x_4,7_ + [ -1 Q_4_ * x_4,7_ ] >= 0
c188: 1 Q_8_ + 1 x_4,8_ + [ -1 Q_4_ * x_4,8_ ] >= 0
c189: 1 Q_9_ + 1 x_4,9_ + [ -1 Q_4_ * x_4,9_ ] >= 0
c190: 1 Q_10_ + 1 x_4,10_ + [ -1 Q_4_ * x_4,10_ ] >= 0
c191: 1 Q_11_ + 1 x_4,11_ + [ -1 Q_4_ * x_4,11_ ] >= 0
c192: 1 Q_12_ + [ -1 Q_4_ * x_4,12_ ] >= 0
c193: 1 Q_1_ + [ -1 Q_5_ * x_5,1_ ] >= 0
c194: 1 Q_2_ - 1 x_5,2_ + [ -1 Q_5_ * x_5,2_ ] >= 0
c195: 1 Q_3_ - 1 x_5,3_ + [ -1 Q_5_ * x_5,3_ ] >= 0
c196: 1 Q_4_ - 1 x_5,4_ + [ -1 Q_5_ * x_5,4_ ] >= 0
c197: 1 Q_5_ - 1 x_5,5_ + [ -1 Q_5_ * x_5,5_ ] >= 0
c198: 1 Q_6_ - 1 x_5,6_ + [ -1 Q_5_ * x_5,6_ ] >= 0
c199: 1 Q_7_ + 1 x_5,7_ + [ -1 Q_5_ * x_5,7_ ] >= 0
c200: 1 Q_8_ + 1 x_5,8_ + [ -1 Q_5_ * x_5,8_ ] >= 0
c201: 1 Q_9_ + 1 x_5,9_ + [ -1 Q_5_ * x_5,9_ ] >= 0
c202: 1 Q_10_ + 1 x_5,10_ + [ -1 Q_5_ * x_5,10_ ] >= 0
c203: 1 Q_11_ + 1 x_5,11_ + [ -1 Q_5_ * x_5,11_ ] >= 0
c204: 1 Q_12_ + [ -1 Q_5_ * x_5,12_ ] >= 0
c205: 1 Q_1_ + [ -1 Q_6_ * x_6,1_ ] >= 0
c206: 1 Q_2_ - 1 x_6,2_ + [ -1 Q_6_ * x_6,2_ ] >= 0
c207: 1 Q_3_ - 1 x_6,3_ + [ -1 Q_6_ * x_6,3_ ] >= 0
c208: 1 Q_4_ - 1 x_6,4_ + [ -1 Q_6_ * x_6,4_ ] >= 0
c209: 1 Q_5_ - 1 x_6,5_ + [ -1 Q_6_ * x_6,5_ ] >= 0
c210: 1 Q_6_ - 1 x_6,6_ + [ -1 Q_6_ * x_6,6_ ] >= 0
c211: 1 Q_7_ + 1 x_6,7_ + [ -1 Q_6_ * x_6,7_ ] >= 0
c212: 1 Q_8_ + 1 x_6,8_ + [ -1 Q_6_ * x_6,8_ ] >= 0
c213: 1 Q_9_ + 1 x_6,9_ + [ -1 Q_6_ * x_6,9_ ] >= 0
c214: 1 Q_10_ + 1 x_6,10_ + [ -1 Q_6_ * x_6,10_ ] >= 0
c215: 1 Q_11_ + 1 x_6,11_ + [ -1 Q_6_ * x_6,11_ ] >= 0
c216: 1 Q_12_ + [ -1 Q_6_ * x_6,12_ ] >= 0
c217: 1 Q_1_ + [ -1 Q_7_ * x_7,1_ ] >= 0
c218: 1 Q_2_ - 1 x_7,2_ + [ -1 Q_7_ * x_7,2_ ] >= 0
c219: 1 Q_3_ - 1 x_7,3_ + [ -1 Q_7_ * x_7,3_ ] >= 0
c220: 1 Q_4_ - 1 x_7,4_ + [ -1 Q_7_ * x_7,4_ ] >= 0
c221: 1 Q_5_ - 1 x_7,5_ + [ -1 Q_7_ * x_7,5_ ] >= 0
c222: 1 Q_6_ - 1 x_7,6_ + [ -1 Q_7_ * x_7,6_ ] >= 0
c223: 1 Q_7_ + 1 x_7,7_ + [ -1 Q_7_ * x_7,7_ ] >= 0
c224: 1 Q_8_ + 1 x_7,8_ + [ -1 Q_7_ * x_7,8_ ] >= 0
c225: 1 Q_9_ + 1 x_7,9_ + [ -1 Q_7_ * x_7,9_ ] >= 0
c226: 1 Q_10_ + 1 x_7,10_ + [ -1 Q_7_ * x_7,10_ ] >= 0
c227: 1 Q_11_ + 1 x_7,11_ + [ -1 Q_7_ * x_7,11_ ] >= 0
c228: 1 Q_12_ + [ -1 Q_7_ * x_7,12_ ] >= 0
c229: 1 Q_1_ + [ -1 Q_8_ * x_8,1_ ] >= 0
c230: 1 Q_2_ - 1 x_8,2_ + [ -1 Q_8_ * x_8,2_ ] >= 0
c231: 1 Q_3_ - 1 x_8,3_ + [ -1 Q_8_ * x_8,3_ ] >= 0
c232: 1 Q_4_ - 1 x_8,4_ + [ -1 Q_8_ * x_8,4_ ] >= 0
c233: 1 Q_5_ - 1 x_8,5_ + [ -1 Q_8_ * x_8,5_ ] >= 0
c234: 1 Q_6_ - 1 x_8,6_ + [ -1 Q_8_ * x_8,6_ ] >= 0
c235: 1 Q_7_ + 1 x_8,7_ + [ -1 Q_8_ * x_8,7_ ] >= 0
c236: 1 Q_8_ + 1 x_8,8_ + [ -1 Q_8_ * x_8,8_ ] >= 0
c237: 1 Q_9_ + 1 x_8,9_ + [ -1 Q_8_ * x_8,9_ ] >= 0
c238: 1 Q_10_ + 1 x_8,10_ + [ -1 Q_8_ * x_8,10_ ] >= 0
c239: 1 Q_11_ + 1 x_8,11_ + [ -1 Q_8_ * x_8,11_ ] >= 0
c240: 1 Q_12_ + [ -1 Q_8_ * x_8,12_ ] >= 0
c241: 1 Q_1_ + [ -1 Q_9_ * x_9,1_ ] >= 0
c242: 1 Q_2_ - 1 x_9,2_ + [ -1 Q_9_ * x_9,2_ ] >= 0
c243: 1 Q_3_ - 1 x_9,3_ + [ -1 Q_9_ * x_9,3_ ] >= 0
c244: 1 Q_4_ - 1 x_9,4_ + [ -1 Q_9_ * x_9,4_ ] >= 0
c245: 1 Q_5_ - 1 x_9,5_ + [ -1 Q_9_ * x_9,5_ ] >= 0
c246: 1 Q_6_ - 1 x_9,6_ + [ -1 Q_9_ * x_9,6_ ] >= 0
c247: 1 Q_7_ + 1 x_9,7_ + [ -1 Q_9_ * x_9,7_ ] >= 0
c248: 1 Q_8_ + 1 x_9,8_ + [ -1 Q_9_ * x_9,8_ ] >= 0
c249: 1 Q_9_ + 1 x_9,9_ + [ -1 Q_9_ * x_9,9_ ] >= 0
c250: 1 Q_10_ + 1 x_9,10_ + [ -1 Q_9_ * x_9,10_ ] >= 0
c251: 1 Q_11_ + 1 x_9,11_ + [ -1 Q_9_ * x_9,11_ ] >= 0
c252: 1 Q_12_ + [ -1 Q_9_ * x_9,12_ ] >= 0
c253: 1 Q_1_ + [ -1 Q_10_ * x_10,1_ ] >= 0
c254: 1 Q_2_ - 1 x_10,2_ + [ -1 Q_10_ * x_10,2_ ] >= 0
c255: 1 Q_3_ - 1 x_10,3_ + [ -1 Q_10_ * x_10,3_ ] >= 0
c256: 1 Q_4_ - 1 x_10,4_ + [ -1 Q_10_ * x_10,4_ ] >= 0
c257: 1 Q_5_ - 1 x_10,5_ + [ -1 Q_10_ * x_10,5_ ] >= 0
c258: 1 Q_6_ - 1 x_10,6_ + [ -1 Q_10_ * x_10,6_ ] >= 0
c259: 1 Q_7_ + 1 x_10,7_ + [ -1 Q_10_ * x_10,7_ ] >= 0
c260: 1 Q_8_ + 1 x_10,8_ + [ -1 Q_10_ * x_10,8_ ] >= 0
c261: 1 Q_9_ + 1 x_10,9_ + [ -1 Q_10_ * x_10,9_ ] >= 0
c262: 1 Q_10_ + 1 x_10,10_ + [ -1 Q_10_ * x_10,10_ ] >= 0
c263: 1 Q_11_ + 1 x_10,11_ + [ -1 Q_10_ * x_10,11_ ] >= 0
c264: 1 Q_12_ + [ -1 Q_10_ * x_10,12_ ] >= 0
c265: 1 Q_1_ + [ -1 Q_11_ * x_11,1_ ] >= 0
c266: 1 Q_2_ - 1 x_11,2_ + [ -1 Q_11_ * x_11,2_ ] >= 0
c267: 1 Q_3_ - 1 x_11,3_ + [ -1 Q_11_ * x_11,3_ ] >= 0
c268: 1 Q_4_ - 1 x_11,4_ + [ -1 Q_11_ * x_11,4_ ] >= 0
c269: 1 Q_5_ - 1 x_11,5_ + [ -1 Q_11_ * x_11,5_ ] >= 0
c270: 1 Q_6_ - 1 x_11,6_ + [ -1 Q_11_ * x_11,6_ ] >= 0
c271: 1 Q_7_ + 1 x_11,7_ + [ -1 Q_11_ * x_11,7_ ] >= 0
c272: 1 Q_8_ + 1 x_11,8_ + [ -1 Q_11_ * x_11,8_ ] >= 0
c273: 1 Q_9_ + 1 x_11,9_ + [ -1 Q_11_ * x_11,9_ ] >= 0
c274: 1 Q_10_ + 1 x_11,10_ + [ -1 Q_11_ * x_11,10_ ] >= 0
c275: 1 Q_11_ + 1 x_11,11_ + [ -1 Q_11_ * x_11,11_ ] >= 0
c276: 1 Q_12_ + [ -1 Q_11_ * x_11,12_ ] >= 0
c277: 1 Q_1_ + [ -1 Q_12_ * x_12,1_ ] >= 0
c278: 1 Q_2_ - 1 x_12,2_ + [ -1 Q_12_ * x_12,2_ ] >= 0
c279: 1 Q_3_ - 1 x_12,3_ + [ -1 Q_12_ * x_12,3_ ] >= 0
c280: 1 Q_4_ - 1 x_12,4_ + [ -1 Q_12_ * x_12,4_ ] >= 0
c281: 1 Q_5_ - 1 x_12,5_ + [ -1 Q_12_ * x_12,5_ ] >= 0
c282: 1 Q_6_ - 1 x_12,6_ + [ -1 Q_12_ * x_12,6_ ] >= 0
c283: 1 Q_7_ + 1 x_12,7_ + [ -1 Q_12_ * x_12,7_ ] >= 0
c284: 1 Q_8_ + 1 x_12,8_ + [ -1 Q_12_ * x_12,8_ ] >= 0
c285: 1 Q_9_ + 1 x_12,9_ + [ -1 Q_12_ * x_12,9_ ] >= 0
c286: 1 Q_10_ + 1 x_12,10_ + [ -1 Q_12_ * x_12,10_ ] >= 0
c287: 1 Q_11_ + 1 x_12,11_ + [ -1 Q_12_ * x_12,11_ ] >= 0
c288: 1 Q_12_ + [ -1 Q_12_ * x_12,12_ ] >= 0
c1_1: 1 x_2,1_ + 1 x_2,2_ + 1 x_2,3_ + 1 x_2,4_ + 1 x_2,5_ + 1 x_2,6_ + 1 x_2,7_ + 1 x_2,8_ + 1 x_2,9_ + 1 x_2,10_ + 1 x_2,11_ + 1 x_2,12_ = 1
c2_1: 1 x_2,1_ - 1 x_7,1_ + 1 x_2,2_ - 1 x_7,2_ + 1 x_2,3_ - 1 x_7,3_ + 1 x_2,4_ - 1 x_7,4_ + 1 x_2,5_ - 1 x_7,5_ + 1 x_2,6_ - 1 x_7,6_ + 1 x_2,7_ - 1 x_7,7_ + 1 x_2,8_ - 1 x_7,8_ + 1 x_2,9_ - 1 x_7,9_ + 1 x_2,10_ - 1 x_7,10_ + 1 x_2,11_ - 1 x_7,11_ + 1 x_2,12_ - 1 x_7,12_ = 0
c3_1: 1 x_3,1_ + 1 x_3,2_ + 1 x_3,3_ + 1 x_3,4_ + 1 x_3,5_ + 1 x_3,6_ + 1 x_3,7_ + 1 x_3,8_ + 1 x_3,9_ + 1 x_3,10_ + 1 x_3,11_ + 1 x_3,12_ = 1
c4_1: 1 x_3,1_ - 1 x_8,1_ + 1 x_3,2_ - 1 x_8,2_ + 1 x_3,3_ - 1 x_8,3_ + 1 x_3,4_ - 1 x_8,4_ + 1 x_3,5_ - 1 x_8,5_ + 1 x_3,6_ - 1 x_8,6_ + 1 x_3,7_ - 1 x_8,7_ + 1 x_3,8_ - 1 x_8,8_ + 1 x_3,9_ - 1 x_8,9_ + 1 x_3,10_ - 1 x_8,10_ + 1 x_3,11_ - 1 x_8,11_ + 1 x_3,12_ - 1 x_8,12_ = 0
c5_1: 1 x_4,1_ + 1 x_4,2_ + 1 x_4,3_ + 1 x_4,4_ + 1 x_4,5_ + 1 x_4,6_ + 1 x_4,7_ + 1 x_4,8_ + 1 x_4,9_ + 1 x_4,10_ + 1 x_4,11_ + 1 x_4,12_ = 1
c6_1: 1 x_4,1_ - 1 x_9,1_ + 1 x_4,2_ - 1 x_9,2_ + 1 x_4,3_ - 1 x_9,3_ + 1 x_4,4_ - 1 x_9,4_ + 1 x_4,5_ - 1 x_9,5_ + 1 x_4,6_ - 1 x_9,6_ + 1 x_4,7_ - 1 x_9,7_ + 1 x_4,8_ - 1 x_9,8_ + 1 x_4,9_ - 1 x_9,9_ + 1 x_4,10_ - 1 x_9,10_ + 1 x_4,11_ - 1 x_9,11_ + 1 x_4,12_ - 1 x_9,12_ = 0
c7_1: 1 x_5,1_ + 1 x_5,2_ + 1 x_5,3_ + 1 x_5,4_ + 1 x_5,5_ + 1 x_5,6_ + 1 x_5,7_ + 1 x_5,8_ + 1 x_5,9_ + 1 x_5,10_ + 1 x_5,11_ + 1 x_5,12_ = 1
c8_1: 1 x_5,1_ - 1 x_10,1_ + 1 x_5,2_ - 1 x_10,2_ + 1 x_5,3_ - 1 x_10,3_ + 1 x_5,4_ - 1 x_10,4_ + 1 x_5,5_ - 1 x_10,5_ + 1 x_5,6_ - 1 x_10,6_ + 1 x_5,7_ - 1 x_10,7_ + 1 x_5,8_ - 1 x_10,8_ + 1 x_5,9_ - 1 x_10,9_ + 1 x_5,10_ - 1 x_10,10_ + 1 x_5,11_ - 1 x_10,11_ + 1 x_5,12_ - 1 x_10,12_ = 0
c9_1: 1 x_6,1_ + 1 x_6,2_ + 1 x_6,3_ + 1 x_6,4_ + 1 x_6,5_ + 1 x_6,6_ + 1 x_6,7_ + 1 x_6,8_ + 1 x_6,9_ + 1 x_6,10_ + 1 x_6,11_ + 1 x_6,12_ = 1
c10_1: 1 x_6,1_ - 1 x_11,1_ + 1 x_6,2_ - 1 x_11,2_ + 1 x_6,3_ - 1 x_11,3_ + 1 x_6,4_ - 1 x_11,4_ + 1 x_6,5_ - 1 x_11,5_ + 1 x_6,6_ - 1 x_11,6_ + 1 x_6,7_ - 1 x_11,7_ + 1 x_6,8_ - 1 x_11,8_ + 1 x_6,9_ - 1 x_11,9_ + 1 x_6,10_ - 1 x_11,10_ + 1 x_6,11_ - 1 x_11,11_ + 1 x_6,12_ - 1 x_11,12_ = 0
c11_1: 1 x_1,1_ + 1 x_1,2_ + 1 x_1,3_ + 1 x_1,4_ + 1 x_1,5_ + 1 x_1,6_ + 1 x_1,7_ + 1 x_1,8_ + 1 x_1,9_ + 1 x_1,10_ + 1 x_1,11_ + 1 x_1,12_ = 1
c12_1: 1 x_2,1_ - 1 x_1,2_ - 1 x_3,2_ - 1 x_4,2_ - 1 x_5,2_ - 1 x_6,2_ - 1 x_7,2_ - 1 x_8,2_ - 1 x_9,2_ - 1 x_10,2_ - 1 x_11,2_ - 1 x_12,2_ + 1 x_2,3_ + 1 x_2,4_ + 1 x_2,5_ + 1 x_2,6_ + 1 x_2,7_ + 1 x_2,8_ + 1 x_2,9_ + 1 x_2,10_ + 1 x_2,11_ + 1 x_2,12_ = 0
c13_1: 1 x_3,1_ + 1 x_3,2_ - 1 x_1,3_ - 1 x_2,3_ - 1 x_4,3_ - 1 x_5,3_ - 1 x_6,3_ - 1 x_7,3_ - 1 x_8,3_ - 1 x_9,3_ - 1 x_10,3_ - 1 x_11,3_ - 1 x_12,3_ + 1 x_3,4_ + 1 x_3,5_ + 1 x_3,6_ + 1 x_3,7_ + 1 x_3,8_ + 1 x_3,9_ + 1 x_3,10_ + 1 x_3,11_ + 1 x_3,12_ = 0
c14_1: 1 x_4,1_ + 1 x_4,2_ + 1 x_4,3_ - 1 x_1,4_ - 1 x_2,4_ - 1 x_3,4_ - 1 x_5,4_ - 1 x_6,4_ - 1 x_7,4_ - 1 x_8,4_ - 1 x_9,4_ - 1 x_10,4_ - 1 x_11,4_ - 1 x_12,4_ + 1 x_4,5_ + 1 x_4,6_ + 1 x_4,7_ + 1 x_4,8_ + 1 x_4,9_ + 1 x_4,10_ + 1 x_4,11_ + 1 x_4,12_ = 0
c15_1: 1 x_5,1_ + 1 x_5,2_ + 1 x_5,3_ + 1 x_5,4_ - 1 x_1,5_ - 1 x_2,5_ - 1 x_3,5_ - 1 x_4,5_ - 1 x_6,5_ - 1 x_7,5_ - 1 x_8,5_ - 1 x_9,5_ - 1 x_10,5_ - 1 x_11,5_ - 1 x_12,5_ + 1 x_5,6_ + 1 x_5,7_ + 1 x_5,8_ + 1 x_5,9_ + 1 x_5,10_ + 1 x_5,11_ + 1 x_5,12_ = 0
c16_1: 1 x_6,1_ + 1 x_6,2_ + 1 x_6,3_ + 1 x_6,4_ + 1 x_6,5_ - 1 x_1,6_ - 1 x_2,6_ - 1 x_3,6_ - 1 x_4,6_ - 1 x_5,6_ - 1 x_7,6_ - 1 x_8,6_ - 1 x_9,6_ - 1 x_10,6_ - 1 x_11,6_ - 1 x_12,6_ + 1 x_6,7_ + 1 x_6,8_ + 1 x_6,9_ + 1 x_6,10_ + 1 x_6,11_ + 1 x_6,12_ = 0
c17_1: 1 x_7,1_ + 1 x_7,2_ + 1 x_7,3_ + 1 x_7,4_ + 1 x_7,5_ + 1 x_7,6_ - 1 x_1,7_ - 1 x_2,7_ - 1 x_3,7_ - 1 x_4,7_ - 1 x_5,7_ - 1 x_6,7_ - 1 x_8,7_ - 1 x_9,7_ - 1 x_10,7_ - 1 x_11,7_ - 1 x_12,7_ + 1 x_7,8_ + 1 x_7,9_ + 1 x_7,10_ + 1 x_7,11_ + 1 x_7,12_ = 0
c18_1: 1 x_8,1_ + 1 x_8,2_ + 1 x_8,3_ + 1 x_8,4_ + 1 x_8,5_ + 1 x_8,6_ + 1 x_8,7_ - 1 x_1,8_ - 1 x_2,8_ - 1 x_3,8_ - 1 x_4,8_ - 1 x_5,8_ - 1 x_6,8_ - 1 x_7,8_ - 1 x_9,8_ - 1 x_10,8_ - 1 x_11,8_ - 1 x_12,8_ + 1 x_8,9_ + 1 x_8,10_ + 1 x_8,11_ + 1 x_8,12_ = 0
c19_1: 1 x_9,1_ + 1 x_9,2_ + 1 x_9,3_ + 1 x_9,4_ + 1 x_9,5_ + 1 x_9,6_ + 1 x_9,7_ + 1 x_9,8_ - 1 x_1,9_ - 1 x_2,9_ - 1 x_3,9_ - 1 x_4,9_ - 1 x_5,9_ - 1 x_6,9_ - 1 x_7,9_ - 1 x_8,9_ - 1 x_10,9_ - 1 x_11,9_ - 1 x_12,9_ + 1 x_9,10_ + 1 x_9,11_ + 1 x_9,12_ = 0
c20_1: 1 x_10,1_ + 1 x_10,2_ + 1 x_10,3_ + 1 x_10,4_ + 1 x_10,5_ + 1 x_10,6_ + 1 x_10,7_ + 1 x_10,8_ + 1 x_10,9_ - 1 x_1,10_ - 1 x_2,10_ - 1 x_3,10_ - 1 x_4,10_ - 1 x_5,10_ - 1 x_6,10_ - 1 x_7,10_ - 1 x_8,10_ - 1 x_9,10_ - 1 x_11,10_ - 1 x_12,10_ + 1 x_10,11_ + 1 x_10,12_ = 0
c21_1: 1 x_11,1_ + 1 x_11,2_ + 1 x_11,3_ + 1 x_11,4_ + 1 x_11,5_ + 1 x_11,6_ + 1 x_11,7_ + 1 x_11,8_ + 1 x_11,9_ + 1 x_11,10_ - 1 x_1,11_ - 1 x_2,11_ - 1 x_3,11_ - 1 x_4,11_ - 1 x_5,11_ - 1 x_6,11_ - 1 x_7,11_ - 1 x_8,11_ - 1 x_9,11_ - 1 x_10,11_ - 1 x_12,11_ + 1 x_11,12_ = 0
c22_1: 1 x_1,12_ + 1 x_2,12_ + 1 x_3,12_ + 1 x_4,12_ + 1 x_5,12_ + 1 x_6,12_ + 1 x_7,12_ + 1 x_8,12_ + 1 x_9,12_ + 1 x_10,12_ + 1 x_11,12_ + 1 x_12,12_ = 1
Bounds
T_1_ >= 0
T_2_ >= 0
T_3_ >= 0
T_4_ >= 0
T_5_ >= 0
T_6_ >= 0
T_7_ >= 0
T_8_ >= 0
T_9_ >= 0
T_10_ >= 0
T_11_ >= 0
T_12_ >= 0
Q_1_ >= 0
Q_2_ >= 0
Q_3_ >= 0
Q_4_ >= 0
Q_5_ >= 0
Q_6_ >= 0
Q_7_ >= 0
Q_8_ >= 0
Q_9_ >= 0
Q_10_ >= 0
Q_11_ >= 0
Q_12_ >= 0
Binary
x_1,1_
x_2,1_
x_3,1_
x_4,1_
x_5,1_
x_6,1_
x_7,1_
x_8,1_
x_9,1_
x_10,1_
x_11,1_
x_12,1_
x_1,2_
x_2,2_
x_3,2_
x_4,2_
x_5,2_
x_6,2_
x_7,2_
x_8,2_
x_9,2_
x_10,2_
x_11,2_
x_12,2_
x_1,3_
x_2,3_
x_3,3_
x_4,3_
x_5,3_
x_6,3_
x_7,3_
x_8,3_
x_9,3_
x_10,3_
x_11,3_
x_12,3_
x_1,4_
x_2,4_
x_3,4_
x_4,4_
x_5,4_
x_6,4_
x_7,4_
x_8,4_
x_9,4_
x_10,4_
x_11,4_
x_12,4_
x_1,5_
x_2,5_
x_3,5_
x_4,5_
x_5,5_
x_6,5_
x_7,5_
x_8,5_
x_9,5_
x_10,5_
x_11,5_
x_12,5_
x_1,6_
x_2,6_
x_3,6_
x_4,6_
x_5,6_
x_6,6_
x_7,6_
x_8,6_
x_9,6_
x_10,6_
x_11,6_
x_12,6_
x_1,7_
x_2,7_
x_3,7_
x_4,7_
x_5,7_
x_6,7_
x_7,7_
x_8,7_
x_9,7_
x_10,7_
x_11,7_
x_12,7_
x_1,8_
x_2,8_
x_3,8_
x_4,8_
x_5,8_
x_6,8_
x_7,8_
x_8,8_
x_9,8_
x_10,8_
x_11,8_
x_12,8_
x_1,9_
x_2,9_
x_3,9_
x_4,9_
x_5,9_
x_6,9_
x_7,9_
x_8,9_
x_9,9_
x_10,9_
x_11,9_
x_12,9_
x_1,10_
x_2,10_
x_3,10_
x_4,10_
x_5,10_
x_6,10_
x_7,10_
x_8,10_
x_9,10_
x_10,10_
x_11,10_
x_12,10_
x_1,11_
x_2,11_
x_3,11_
x_4,11_
x_5,11_
x_6,11_
x_7,11_
x_8,11_
x_9,11_
x_10,11_
x_11,11_
x_12,11_
x_1,12_
x_2,12_
x_3,12_
x_4,12_
x_5,12_
x_6,12_
x_7,12_
x_8,12_
x_9,12_
x_10,12_
x_11,12_
x_12,12_
End
